p cnf 20 58
3 4 0
-1 -2 0
-1 -3 0
-1 -8 0
-1 -11 0
-1 -14 0
-1 -17 0
-2 -3 0
-2 -8 0
-2 -11 0
-2 -14 0
-2 -17 0
-3 -8 0
-3 -11 0
-3 -14 0
-3 -17 0
-8 -11 0
-8 -14 0
-8 -17 0
-11 -14 0
-11 -17 0
-14 -17 0
-4 -5 0
-4 -9 0
-4 -12 0
-4 -15 0
-4 -18 0
-4 -19 0
-5 -9 0
-5 -12 0
-5 -15 0
-5 -18 0
-5 -19 0
-9 -12 0
-9 -15 0
-9 -18 0
-9 -19 0
-12 -15 0
-12 -18 0
-12 -19 0
-15 -18 0
-15 -19 0
-18 -19 0
-6 -7 0
-6 -10 0
-6 -13 0
-6 -16 0
-6 -20 0
-7 -10 0
-7 -13 0
-7 -16 0
-7 -20 0
-10 -13 0
-10 -16 0
-10 -20 0
-13 -16 0
-13 -20 0
-16 -20 0
